
  22   10
  10   10   10   10   10   10   10   10   10   10

   0   0   0   0   0   0   0   0   0   0   0   4 2 6 7 21 
   5  10  10  10  10  10  10  10  10  10  10   3 12 10 3 
  10  10  10  10  10  10  10  10  10  10  10   2 13 4 
   4  10  10  10  10  10  10  10  10  10  10   1 5 
   9  10  10  10  10  10  10  10  10  10  10   2 15 9 
   1  10  10  10  10  10  10  10  10  10  10   3 20 13 12 
   7  10  10  10  10  10  10  10  10  10  10   2 11 8 
  10  10  10  10  10  10  10  10  10  10  10   2 14 13 
   3  10  10  10  10  10  10  10  10  10  10   1 11 
   3  10  10  10  10  10  10  10  10  10  10   1 11 
   3  10  10  10  10  10  10  10  10  10  10   2 19 14 
   6  10  10  10  10  10  10  10  10  10  10   2 19 14 
   6  10  10  10  10  10  10  10  10  10  10   2 19 17 
   5  10  10  10  10  10  10  10  10  10  10   1 16 
   3  10  10  10  10  10  10  10  10  10  10   2 20 19 
   5  10  10  10  10  10  10  10  10  10  10   1 17 
   9  10  10  10  10  10  10  10  10  10  10   1 18 
   6  10  10  10  10  10  10  10  10  10  10   1 22
   9  10  10  10  10  10  10  10  10  10  10   1 22
   1  10  10  10  10  10  10  10  10  10  10   1 22
   8  10  10  10  10  10  10  10  10  10  10   1 22
   0   0   0   0   0   0   0   0   0   0   0   0 
